p cnf 97 204
-2 -3 -4 0
-1 -3 -4 0
-1 -2 -4 0
-1 -2 -3 0
-6 -7 -8 0
-5 -7 -8 0
-5 -6 -8 0
-5 -6 -7 0
-10 -11 -12 0
-9 -11 -12 0
-9 -10 -12 0
-9 -10 -11 0
-14 -15 -16 0
-13 -15 -16 0
-13 -14 -16 0
-13 -14 -15 0
-18 -19 -20 0
-17 -19 -20 0
-17 -18 -20 0
-17 -18 -19 0
-22 -23 -24 0
-21 -23 -24 0
-21 -22 -24 0
-21 -22 -23 0
-26 -27 -28 0
-25 -27 -28 0
-25 -26 -28 0
-25 -26 -27 0
-30 -31 -32 0
-29 -31 -32 0
-29 -30 -32 0
-29 -30 -31 0
-34 -35 -36 0
-33 -35 -36 0
-33 -34 -36 0
-33 -34 -35 0
-38 -39 -40 0
-37 -39 -40 0
-37 -38 -40 0
-37 -38 -39 0
-42 -43 -44 0
-41 -43 -44 0
-41 -42 -44 0
-41 -42 -43 0
-46 -47 -48 0
-45 -47 -48 0
-45 -46 -48 0
-45 -46 -47 0
-50 -51 -52 0
-49 -51 -52 0
-49 -50 -52 0
-49 -50 -51 0
-54 -55 -56 0
-53 -55 -56 0
-53 -54 -56 0
-53 -54 -55 0
-58 -59 -60 0
-57 -59 -60 0
-57 -58 -60 0
-57 -58 -59 0
-62 -63 -64 0
-61 -63 -64 0
-61 -62 -64 0
-61 -62 -63 0
-66 -67 -68 0
-65 -67 -68 0
-65 -66 -68 0
-65 -66 -67 0
-70 -71 -72 0
-69 -71 -72 0
-69 -70 -72 0
-69 -70 -71 0
-74 -75 -76 0
-73 -75 -76 0
-73 -74 -76 0
-73 -74 -75 0
-78 -79 -80 0
-77 -79 -80 0
-77 -78 -80 0
-77 -78 -79 0
-82 -83 -84 0
-81 -83 -84 0
-81 -82 -84 0
-81 -82 -83 0
-86 -87 -88 0
-85 -87 -88 0
-85 -86 -88 0
-85 -86 -87 0
-90 -91 -92 0
-89 -91 -92 0
-89 -90 -92 0
-89 -90 -91 0
-93 -94 -95 0
-93 -94 -96 0
-93 -94 -97 0
-93 -95 -96 0
-93 -95 -97 0
-93 -96 -97 0
-94 -95 -96 0
-94 -95 -97 0
-94 -96 -97 0
-95 -96 -97 0
44 9 15 0
92 9 15 0
92 44 15 0
92 44 9 0
61 76 23 0
39 76 23 0
39 61 23 0
39 61 76 0
81 21 33 0
89 21 33 0
89 81 33 0
89 81 21 0
18 85 95 0
73 85 95 0
73 18 95 0
73 18 85 0
54 96 8 0
38 96 8 0
38 54 8 0
38 54 96 0
34 80 42 0
19 80 42 0
19 34 42 0
19 34 80 0
16 60 71 0
63 60 71 0
63 16 71 0
63 16 60 0
59 41 66 0
52 41 66 0
52 59 66 0
52 59 41 0
75 7 62 0
78 7 62 0
78 75 62 0
78 75 7 0
82 87 20 0
6 87 20 0
6 82 20 0
6 82 87 0
29 68 88 0
2 68 88 0
2 29 88 0
2 29 68 0
72 84 11 0
65 84 11 0
65 72 11 0
65 72 84 0
79 55 13 0
26 55 13 0
26 79 13 0
26 79 55 0
1 36 56 0
97 36 56 0
97 1 56 0
97 1 36 0
12 74 31 0
47 74 31 0
47 12 31 0
47 12 74 0
48 28 67 0
5 28 67 0
5 48 67 0
5 48 28 0
27 37 51 0
86 37 51 0
86 27 51 0
86 27 37 0
45 22 94 0
43 22 94 0
43 45 94 0
43 45 22 0
53 83 50 0
64 83 50 0
64 53 50 0
64 53 83 0
14 30 24 0
49 30 24 0
49 14 24 0
49 14 30 0
70 40 35 0
32 40 35 0
32 70 35 0
32 70 40 0
57 77 10 0
3 77 10 0
3 57 10 0
3 57 77 0
25 58 91 0
93 58 91 0
93 25 91 0
93 25 58 0
46 17 69 0
46 17 4 0
46 17 90 0
46 69 4 0
46 69 90 0
46 4 90 0
17 69 4 0
17 69 90 0
17 4 90 0
69 4 90 0
